Data path: /scratch/opt/lxu/CFLG/benchmarks/random_A
Instance: r_20_0.2_34.txt
Result path: /scratch/opt/lxu/CFLG/results/random_A
Solver: Gurobi
Time limit: 3600
Formulation: LEFPI
Cover: Small
julia --project=. src/main.jl /scratch/opt/lxu/CFLG/benchmarks/random_A r_20_0.2_34.txt /scratch/opt/lxu/CFLG/results/random_A Gurobi 3600 LEFPI Small
The latest version of Julia in the `release` channel is 1.11.5+0.x64.linux.gnu. You currently have `1.11.4+0.x64.linux.gnu` installed. Run:

  juliaup update

in your terminal shell to install Julia 1.11.5+0.x64.linux.gnu and update the `release` channel to that version.
/scratch/opt/lxu/CFLG/benchmarks/random_A Gurobi 3600.0 /scratch/opt/lxu/CFLG/results/random_A r_20_0.2_34.txt LEFPI Small
/scratch/opt/lxu/CFLG/benchmarks/random_A/r_20_0.2_34.txt

 read graph
data loaded


after absorb:17 20

max_piece:12
problem_graph/original graph: node: 22/20 edge: 36/34 dlt: 0.15356760412703901 break_avg_len: 0.5801442822577029 break_max_len: 1.671255587357936elapsed CPU time: 0.045344 seconds
Set parameter TokenServer to value "solice01.zib.de"
Set parameter Threads to value 1
Set parameter OutputFlag to value 1
Set parameter MIPGap to value 0.0001
Set parameter MIPGapAbs to value 1
Set parameter TimeLimit to value 3599.954656

 more cuts:false
formulation:LEFPI26 10 6

 model loaded

Gurobi Optimizer version 12.0.1 build v12.0.1rc0 (linux64 - "Debian GNU/Linux 12 (bookworm)")

CPU model: Intel(R) Xeon(R) Gold 5122 CPU @ 3.60GHz, instruction set [SSE2|AVX|AVX2|AVX512]
Thread count: 8 physical cores, 16 logical processors, using up to 1 threads

Non-default parameters:
TimeLimit  3599.954656
MIPGapAbs  1
Threads  1

Optimize a model with 760 rows, 506 columns and 1753 nonzeros
Model fingerprint: 0xd730cfe5
Model has 154 simple general constraints
  154 INDICATOR
Variable types: 130 continuous, 376 integer (376 binary)
Coefficient statistics:
  Matrix range     [1e-01, 2e+00]
  Objective range  [1e+00, 1e+00]
  Bounds range     [1e-01, 2e+00]
  RHS range        [2e-02, 2e+00]
  GenCon rhs range [2e-07, 2e+00]
  GenCon coe range [1e+00, 1e+00]
Presolve removed 323 rows and 225 columns
Presolve time: 0.03s
Presolved: 437 rows, 281 columns, 1867 nonzeros
Variable types: 81 continuous, 200 integer (200 binary)
Found heuristic solution: objective 68.0000000
Found heuristic solution: objective 67.0000000

Root relaxation: objective 5.600000e+01, 152 iterations, 0.00 seconds (0.00 work units)

    Nodes    |    Current Node    |     Objective Bounds      |     Work
 Expl Unexpl |  Obj  Depth IntInf | Incumbent    BestBd   Gap | It/Node Time

     0     0   56.00000    0   28   67.00000   56.00000  16.4%     -    0s
H    0     0                      66.0000000   56.00000  15.2%     -    0s
     0     0   56.00000    0   40   66.00000   56.00000  15.2%     -    0s
     0     0   56.15731    0   44   66.00000   56.15731  14.9%     -    0s
H    0     0                      65.0000000   56.25240  13.5%     -    0s
     0     0   56.25240    0   42   65.00000   56.25240  13.5%     -    0s
     0     0   57.09032    0   49   65.00000   57.09032  12.2%     -    0s
H    0     0                      63.0000000   57.09032  9.38%     -    0s
     0     0   57.23358    0   54   63.00000   57.23358  9.15%     -    0s
     0     0   57.24869    0   53   63.00000   57.24869  9.13%     -    0s
     0     0   57.25188    0   55   63.00000   57.25188  9.12%     -    0s
     0     0   57.25223    0   56   63.00000   57.25223  9.12%     -    0s
     0     0   57.81539    0   58   63.00000   57.81539  8.23%     -    0s
     0     0   58.36480    0   61   63.00000   58.36480  7.36%     -    0s
     0     0   58.39451    0   65   63.00000   58.39451  7.31%     -    0s
     0     0   58.39451    0   68   63.00000   58.39451  7.31%     -    0s
     0     0   58.45468    0   60   63.00000   58.45468  7.21%     -    0s
     0     0   58.57916    0   63   63.00000   58.57916  7.02%     -    0s
     0     0   58.57916    0   64   63.00000   58.57916  7.02%     -    0s
     0     0   58.57916    0   80   63.00000   58.57916  7.02%     -    0s
     0     0   58.59202    0   80   63.00000   58.59202  7.00%     -    0s
     0     0   58.59202    0   69   63.00000   58.59202  7.00%     -    0s
     0     0   58.66667    0   69   63.00000   58.66667  6.88%     -    0s
     0     0   58.66667    0   75   63.00000   58.66667  6.88%     -    0s
     0     0   58.66667    0   75   63.00000   58.66667  6.88%     -    0s
     0     0   58.66667    0   73   63.00000   58.66667  6.88%     -    0s
     0     0   58.69289    0   81   63.00000   58.69289  6.84%     -    0s
     0     0   58.69289    0   81   63.00000   58.69289  6.84%     -    0s
     0     0   58.69289    0   83   63.00000   58.69289  6.84%     -    0s
     0     0   58.69289    0   83   63.00000   58.69289  6.84%     -    0s
     0     0   58.69289    0   83   63.00000   58.69289  6.84%     -    0s
     0     0   58.69289    0   83   63.00000   58.69289  6.84%     -    0s
     0     0   58.69289    0   71   63.00000   58.69289  6.84%     -    0s
     0     2   58.90364    0   65   63.00000   58.90364  6.50%     -    0s
*  107    56              27      62.0000000   59.18776  4.54%  14.7    0s
H  473    41                      61.0000000   59.71995  2.10%  13.3    0s

Cutting planes:
  Gomory: 4
  Cover: 65
  Implied bound: 11
  MIR: 69
  StrongCG: 2
  GUB cover: 7
  Inf proof: 1
  RLT: 7
  Relax-and-lift: 13
  BQP: 1

Explored 487 nodes (7771 simplex iterations) in 0.47 seconds (0.25 work units)
Thread count was 1 (of 16 available processors)

Solution count 7: 61 62 63 ... 68

Optimal solution found (tolerance 1.00e-04)
Best objective 6.100000000000e+01, best bound 6.000000000000e+01, gap 1.6393%

User-callback calls 2356, time in user-callback 0.01 sec

 sepatime0
61.0Stat(MathOptInterface.OPTIMAL, 61.0, 60.00000000000001, 0.016393442622950703, 0.0, 0.045344, 0.46737003326416016, 487, Main.CFLG.LEFPI, "", #undef)
